
Gurobi 11.0.1 (win64) logging started Wed Apr 24 19:05:03 2024

Set parameter LogFile to value "ModelMinBusov.log"
Set parameter MIPGap to value 0
Gurobi Optimizer version 11.0.1 build v11.0.1rc0 (win64 - Windows 11.0 (22631.2))

CPU model: 12th Gen Intel(R) Core(TM) i5-12450H, instruction set [SSE2|AVX|AVX2]
Thread count: 8 physical cores, 12 logical processors, using up to 12 threads

Optimize a model with 96 rows, 1076 columns and 2152 nonzeros
Model fingerprint: 0xa85ef683
Variable types: 0 continuous, 1076 integer (1076 binary)
Coefficient statistics:
  Matrix range     [1e+00, 1e+00]
  Objective range  [1e+00, 1e+00]
  Bounds range     [1e+00, 1e+00]
  RHS range        [1e+00, 1e+00]
Found heuristic solution: objective 44.0000000
Presolve removed 46 rows and 726 columns
Presolve time: 0.01s
Presolved: 50 rows, 350 columns, 700 nonzeros
Variable types: 0 continuous, 350 integer (350 binary)
Found heuristic solution: objective 45.0000000

Root relaxation: cutoff, 0 iterations, 0.00 seconds (0.00 work units)

Explored 1 nodes (0 simplex iterations) in 0.01 seconds (0.01 work units)
Thread count was 12 (of 12 available processors)

Solution count 2: 45 44 

Optimal solution found (tolerance 0.00e+00)
Best objective 4.500000000000e+01, best bound 4.500000000000e+01, gap 0.0000%
